GLPSOL--GLPK LP/MIP Solver 5.0
Parameter(s) specified in the command line:
 --lp ../modeles/2_344.lp --log 2_344.log
Reading problem data from '../modeles/2_344.lp'...
697 rows, 1380 columns, 4822 non-zeros
688 integer variables, all of which are binary
2085 lines were read
GLPK Integer Optimizer 5.0
697 rows, 1380 columns, 4822 non-zeros
688 integer variables, all of which are binary
Preprocessing...
684 constraint coefficient(s) were reduced
697 rows, 1378 columns, 4820 non-zeros
688 integer variables, all of which are binary
Scaling...
 A: min|aij| =  1.352e-04  max|aij| =  4.000e+00  ratio =  2.958e+04
GM: min|aij| =  7.625e-02  max|aij| =  1.311e+01  ratio =  1.720e+02
EQ: min|aij| =  5.814e-03  max|aij| =  1.000e+00  ratio =  1.720e+02
2N: min|aij| =  3.906e-03  max|aij| =  1.751e+00  ratio =  4.481e+02
Constructing initial basis...
Size of triangular part is 697
Solving LP relaxation...
GLPK Simplex Optimizer 5.0
697 rows, 1378 columns, 4820 non-zeros
      0: obj =   4.000000000e+00 inf =   9.500e+00 (5)
     41: obj =   4.691783716e-01 inf =   0.000e+00 (0)
*   156: obj =  -1.414184125e+00 inf =   3.018e-16 (0)
OPTIMAL LP SOLUTION FOUND
Integer optimization begins...
Long-step dual simplex will be used
+   156: mip =     not found yet >=              -inf        (1; 0)
+   213: >>>>>  -1.414184125e+00 >=  -1.414184125e+00   0.0% (58; 0)
+   213: mip =  -1.414184125e+00 >=     tree is empty   0.0% (0; 115)
INTEGER OPTIMAL SOLUTION FOUND
Time used:   0.1 secs
Memory used: 2.0 Mb (2127136 bytes)
